45
CuPy4
Cu 0.00000000 0.000000000 0.000000000
C -0.695174739 2.703797661 -0.935667100
H -1.252849847 2.112386426 -1.661786403
C 0.696234162 2.704292804 0.934554740
H 1.252748139 2.113413780 1.661978708
C 0.710592471 4.094287803 0.969873234
H 1.274833194 4.606919765 1.748082093
C 0.002238170 4.803410619 -0.002494345
H 0.003157740 5.893671184 -0.003448466
C -0.707342372 4.093765099 -0.973548961
H -1.270865502 4.605843838 -1.752638327
C -2.705163278 0.695714907 0.934039059
H -2.114604722 1.251200921 1.662510065
C -4.095195580 0.710639422 0.968342019
H -4.608161030 1.274604700 1.746531287
C -4.803845710 0.003299507 -0.005089467
H -5.894103231 0.004604114 -0.006879539
C -4.093707142 -0.705799809 -0.976140546
H -4.605478125 -1.268587753 -1.755974511
C -2.703782408 -0.694106954 -0.937341313
H -2.112077049 -1.251167681 -1.663681185
N 0.000000000 2.020299387 0.000000000
N -2.020685339 0.000061870 -0.000598595
C 2.703651407 -0.696907651 0.934762350
H 2.112131948 -1.255415688 1.660154620
C 2.704410175 0.696891253 -0.933681483
H 2.113632342 1.254455924 -1.660384628
C 4.094407688 0.711018657 -0.968991246
H 4.607146773 1.276153567 -1.746479720
C 4.803395673 0.001277728 0.002463020
H 5.893656990 0.001972041 0.003404639
C 4.093617228 -0.709406254 0.972614170
H 4.605590090 -1.274043458 1.750967208
C 0.696731329 -2.705326932 -0.932756240
H 1.253364302 -2.114905401 -1.660465621
C 0.711548636 -4.095365066 -0.966887609
H 1.276596203 -4.608479078 -1.744193774
C 0.002708266 -4.803827914 0.005589773
H 0.003881655 -5.894085779 0.007496010
C -0.707716010 -4.093505081 0.975538198
H -1.271697998 -4.605128671 1.754604561
C -0.695796975 -2.703585338 0.936614563
H -1.253849671 -2.111733437 1.662074837
N 2.020290525 -0.000386831 0.000000000
N -0.000206020 -2.020677521 0.000793206
